units           metal
atom_style	atomic
boundary        p p p
dimension	3

read_data	data/data.ScAlCu2

pair_style 	mlip mlip.ini
pair_coeff 	* *

neighbor	0.1 bin
neigh_modify	every 1 delay 0 check yes

minimize 	0.0 1.0e-8 1000 100000

velocity	all create 300.0 124
fix	22	all npt temp 300.0 300.0 0.1 iso 0.1 0.1 10.0
thermo_style	custom step temp etotal pxx pyy pzz
thermo		100
timestep	0.001
run		2000
