NPAR=4
SYSTEM = (Sc Cu Al)16 (P1) ~ D:/Jiyc/ML Potential/Models SCF/ScAlCu.cif (VASP)
PREC = Normal
ENCUT = 450
IBRION = -1
NSW = 0
ISIF = 3
NELMIN = 2
EDIFF = 1.0e-05
EDIFFG = -0.02
VOSKOWN = 1
NBLOCK = 1
NWRITE = 1
ISYM = 0
NELM = 60
ALGO = Normal (blocked Davidson)
ISPIN = 1
INIWAV = 1
ISTART = 0
ICHARG = 2
LWAVE = .FALSE.
LCHARG = .FALSE.
ADDGRID = .FALSE.
LHYPERFINE = .FALSE.
ISMEAR = 1
SIGMA = 0.2
LREAL = Auto
